100
100
3000 3000 3000 3000 3000 3000 3000 3000 3000 3000 3000 3000 3000 3000 3000 3000 3000 3000 3000 3000 3000 3000 3000 3000 3000 3000 3000 3000 3000 3000 3000 3000 3000 3000 3000 3000 3000 3000 3000 3000 3000 3000 3000 3000 3000 3000 3000 3000 3000 3000 3000 3000 3000 3000 3000 3000 3000 3000 3000 3000 3000 3000 3000 3000 3000 3000 3000 3000 3000 3000 3000 3000 3000 3000 3000 3000 3000 3000 3000 3000 3000 3000 3000 3000 3000 3000 3000 3000 3000 3000 3000 3000 3000 3000 3000 3000 3000 3000 3000 3000
0 9 4
0 25 2
0 36 0
0 46 0
0 49 1
0 81 4
0 82 2
0 83 3
0 85 2
0 94 3
1 14 2
1 17 1
1 19 1
1 36 3
1 38 2
1 44 0
1 58 1
1 62 2
1 71 1
1 74 2
2 8 2
2 16 3
2 18 3
2 20 2
2 28 2
2 38 3
2 39 0
2 49 3
2 52 1
2 89 1
3 7 3
3 13 1
3 53 3
3 60 2
3 63 0
3 64 3
3 69 0
3 72 0
3 83 1
3 86 0
4 10 0
4 21 0
4 25 0
4 28 1
4 29 4
4 43 0
4 45 3
4 46 1
4 59 1
4 65 3
5 1 1
5 6 3
5 16 3
5 17 1
5 31 0
5 35 0
5 42 1
5 50 4
5 63 1
5 76 0
6 3 3
6 14 2
6 26 3
6 27 4
6 70 3
6 72 1
6 74 4
6 86 3
6 89 3
6 94 1
7 6 1
7 22 3
7 29 3
7 41 0
7 46 0
7 48 0
7 58 4
7 77 3
7 86 0
7 93 2
8 17 1
8 25 3
8 28 2
8 36 1
8 54 3
8 55 1
8 57 3
8 60 0
8 62 1
8 75 0
9 0 2
9 5 3
9 19 4
9 22 2
9 27 0
9 37 2
9 40 1
9 69 2
9 70 3
9 93 3
10 4 2
10 32 0
10 39 1
10 67 4
10 79 2
10 82 3
10 96 3
10 97 4
10 98 0
10 99 2
11 3 3
11 14 4
11 16 0
11 20 3
11 23 1
11 28 4
11 33 2
11 38 4
11 57 2
11 60 2
12 8 0
12 11 0
12 15 4
12 43 0
12 66 3
12 67 4
12 68 1
12 79 1
12 80 2
12 84 3
13 0 0
13 1 4
13 7 3
13 35 4
13 50 3
13 66 0
13 69 4
13 80 4
13 90 0
13 91 4
14 13 1
14 28 2
14 35 3
14 39 2
14 65 3
14 86 2
14 87 3
14 90 2
14 94 3
14 99 4
15 0 0
15 34 0
15 52 3
15 67 4
15 74 1
15 83 4
15 86 4
15 88 1
15 93 2
15 95 4
16 18 4
16 34 0
16 39 4
16 43 3
16 55 3
16 56 3
16 63 0
16 69 4
16 71 2
16 80 1
17 19 1
17 20 0
17 43 4
17 44 4
17 56 0
17 57 4
17 64 4
17 78 0
17 82 2
17 92 0
18 3 1
18 13 3
18 26 1
18 33 0
18 34 0
18 54 1
18 67 1
18 72 2
18 73 4
18 75 3
19 5 2
19 22 2
19 53 2
19 80 4
19 83 0
19 92 1
19 93 1
19 95 4
19 96 0
19 98 3
20 1 4
20 7 1
20 12 3
20 13 2
20 14 4
20 60 3
20 69 0
20 73 2
20 74 4
20 75 4
21 6 4
21 13 0
21 22 2
21 27 1
21 32 4
21 37 0
21 41 1
21 54 3
21 68 0
21 75 2
22 5 1
22 11 4
22 12 3
22 16 2
22 20 1
22 23 1
22 24 1
22 33 3
22 35 2
22 41 4
23 12 3
23 37 3
23 51 0
23 52 4
23 77 1
23 84 1
23 94 4
23 97 1
23 98 2
23 99 1
24 12 2
24 14 4
24 31 0
24 42 0
24 43 1
24 45 1
24 47 3
24 50 3
24 51 2
24 58 3
25 8 1
25 11 2
25 27 4
25 33 4
25 57 3
25 62 4
25 63 1
25 88 3
25 93 3
25 96 3
26 13 4
26 25 2
26 37 1
26 47 3
26 54 1
26 66 3
26 78 0
26 87 2
26 94 0
26 97 0
27 14 3
27 43 3
27 46 4
27 67 1
27 76 0
27 89 1
27 93 1
27 96 3
27 98 4
27 99 2
28 7 4
28 11 1
28 12 3
28 14 2
28 29 0
28 35 1
28 38 0
28 40 4
28 51 3
28 58 1
29 9 4
29 11 1
29 13 1
29 15 2
29 24 1
29 44 0
29 63 3
29 79 0
29 88 0
29 92 1
30 1 3
30 24 1
30 35 0
30 48 1
30 50 4
30 56 0
30 58 3
30 65 3
30 79 0
30 95 3
31 0 1
31 20 0
31 23 1
31 25 2
31 46 4
31 47 2
31 51 4
31 61 1
31 62 2
31 64 3
32 6 1
32 19 1
32 61 2
32 82 3
32 85 3
32 87 1
32 89 1
32 94 0
32 96 3
32 98 2
33 1 3
33 3 3
33 9 4
33 22 1
33 27 2
33 43 2
33 52 1
33 57 0
33 58 4
33 83 0
34 6 2
34 16 4
34 17 3
34 23 1
34 34 2
34 39 0
34 45 3
34 69 2
34 70 0
34 73 4
35 23 3
35 30 4
35 33 4
35 54 1
35 59 4
35 62 3
35 87 2
35 92 1
35 95 2
35 99 1
36 20 0
36 49 0
36 50 2
36 55 3
36 87 4
36 90 3
36 92 2
36 93 4
36 94 3
36 95 1
37 0 0
37 2 4
37 15 2
37 16 1
37 22 3
37 32 4
37 45 3
37 61 2
37 71 2
37 77 2
38 7 1
38 19 2
38 34 1
38 38 2
38 44 3
38 45 3
38 47 3
38 55 4
38 68 2
38 76 3
39 4 0
39 5 1
39 66 1
39 72 3
39 79 3
39 83 3
39 84 3
39 86 2
39 88 4
39 90 0
40 4 0
40 7 0
40 22 2
40 26 1
40 41 2
40 54 0
40 61 0
40 63 4
40 68 0
40 77 0
41 11 4
41 23 4
41 40 3
41 48 0
41 50 3
41 75 0
41 78 1
41 80 1
41 84 4
41 85 4
42 20 0
42 24 2
42 25 0
42 30 4
42 39 4
42 40 4
42 58 1
42 60 0
42 64 2
42 87 0
43 26 0
43 47 3
43 53 2
43 59 2
43 61 0
43 67 3
43 68 2
43 78 1
43 79 4
43 80 4
44 0 2
44 2 0
44 17 4
44 39 4
44 42 3
44 46 3
44 54 3
44 70 2
44 71 0
44 73 2
45 21 2
45 22 3
45 56 1
45 62 3
45 91 1
45 94 4
45 95 3
45 96 2
45 97 4
45 98 0
46 2 2
46 4 1
46 11 4
46 26 3
46 48 3
46 56 0
46 70 4
46 72 3
46 81 4
46 88 4
47 8 3
47 21 2
47 30 0
47 36 2
47 37 4
47 42 0
47 48 0
47 67 0
47 76 0
47 87 0
48 12 1
48 19 2
48 36 4
48 44 3
48 54 1
48 59 1
48 73 4
48 80 3
48 81 0
48 89 0
49 5 0
49 8 0
49 32 0
49 36 0
49 87 2
49 88 0
49 91 1
49 92 2
49 98 0
49 99 4
50 2 0
50 32 2
50 36 4
50 39 4
50 57 3
50 60 4
50 64 3
50 69 4
50 78 4
50 95 4
51 6 4
51 14 4
51 20 3
51 53 2
51 58 4
51 61 3
51 83 4
51 86 2
51 93 0
51 95 4
52 3 2
52 5 1
52 10 0
52 15 2
52 23 4
52 26 4
52 31 2
52 34 0
52 40 2
52 52 2
53 3 3
53 4 4
53 32 4
53 67 1
53 70 4
53 73 0
53 74 2
53 97 1
53 98 4
53 99 4
54 3 1
54 24 4
54 29 3
54 32 2
54 47 3
54 51 0
54 62 4
54 94 0
54 96 0
54 97 1
55 12 2
55 16 0
55 17 4
55 31 3
55 74 0
55 75 2
55 82 1
55 85 4
55 89 2
55 90 4
56 8 2
56 9 0
56 17 1
56 30 2
56 35 0
56 67 3
56 71 1
56 73 1
56 75 2
56 90 4
57 9 3
57 24 4
57 30 2
57 33 4
57 42 1
57 53 3
57 70 1
57 72 4
57 77 0
57 98 2
58 6 3
58 17 3
58 34 3
58 41 3
58 51 2
58 65 3
58 71 1
58 84 0
58 93 0
58 96 1
59 15 4
59 39 3
59 78 2
59 84 0
59 85 3
59 92 3
59 96 3
59 97 0
59 98 1
59 99 1
60 12 3
60 37 4
60 41 1
60 46 0
60 48 4
60 51 2
60 52 2
60 61 0
60 62 2
60 85 3
61 4 4
61 18 2
61 28 1
61 38 0
61 56 4
61 79 0
61 85 3
61 91 0
61 95 1
61 97 4
62 5 2
62 23 4
62 27 4
62 28 0
62 30 2
62 37 2
62 45 2
62 46 2
62 51 1
62 66 0
63 1 2
63 2 4
63 12 3
63 43 1
63 44 3
63 48 3
63 49 0
63 59 2
63 65 4
63 66 0
64 0 3
64 9 4
64 10 0
64 15 3
64 18 0
64 26 3
64 30 0
64 31 0
64 35 0
64 57 1
65 0 3
65 7 0
65 20 0
65 21 2
65 42 2
65 65 3
65 72 1
65 75 4
65 76 1
65 88 0
66 7 0
66 9 3
66 21 4
66 22 1
66 29 3
66 30 1
66 34 0
66 50 0
66 51 4
66 76 0
67 4 3
67 13 3
67 19 1
67 50 2
67 65 2
67 69 2
67 84 3
67 89 1
67 90 2
67 92 1
68 1 0
68 4 4
68 8 3
68 14 1
68 18 4
68 26 3
68 27 3
68 33 1
68 49 0
68 60 1
69 2 3
69 6 3
69 10 4
69 27 2
69 34 1
69 57 2
69 58 2
69 68 0
69 75 0
69 78 1
70 1 1
70 11 2
70 56 1
70 59 0
70 77 1
70 79 1
70 87 2
70 91 3
70 93 4
70 94 2
71 9 2
71 15 2
71 22 4
71 29 3
71 31 1
71 32 2
71 42 3
71 46 0
71 70 4
71 80 0
72 5 1
72 7 2
72 8 2
72 12 2
72 13 2
72 23 0
72 31 2
72 43 4
72 51 2
72 55 3
73 3 1
73 15 0
73 19 4
73 47 2
73 53 3
73 60 2
73 64 1
73 69 3
73 89 4
73 91 3
74 9 2
74 36 3
74 38 0
74 42 3
74 50 3
74 52 0
74 59 0
74 72 1
74 73 2
74 82 4
75 8 4
75 10 2
75 23 4
75 32 1
75 37 2
75 46 0
75 49 3
75 65 3
75 72 0
75 74 3
76 4 4
76 17 3
76 21 1
76 27 3
76 29 4
76 35 4
76 41 0
76 43 0
76 48 4
76 53 0
77 10 3
77 15 3
77 33 3
77 42 3
77 74 2
77 76 2
77 77 1
77 81 2
77 88 0
77 91 2
78 5 1
78 7 3
78 10 2
78 52 4
78 58 4
78 78 0
78 79 1
78 86 4
78 87 0
78 88 0
79 21 4
79 40 1
79 48 2
79 49 3
79 62 2
79 76 1
79 77 1
79 79 2
79 82 0
79 90 3
80 27 3
80 29 1
80 32 1
80 45 4
80 50 0
80 56 2
80 64 1
80 67 2
80 71 3
80 80 1
81 2 3
81 21 2
81 44 3
81 55 0
81 74 1
81 75 1
81 81 3
81 82 1
81 90 1
81 96 4
82 1 3
82 8 0
82 28 4
82 38 4
82 59 0
82 81 0
82 82 3
82 84 4
82 91 0
82 92 0
83 24 0
83 37 4
83 40 2
83 44 0
83 49 1
83 54 0
83 70 0
83 81 0
83 84 3
83 86 1
84 14 2
84 16 4
84 19 0
84 25 4
84 30 2
84 63 4
84 66 3
84 71 1
84 73 3
84 85 3
85 10 2
85 13 2
85 21 1
85 26 4
85 62 4
85 85 1
85 89 2
85 91 2
85 92 0
85 99 3
86 2 1
86 18 0
86 29 1
86 41 0
86 45 2
86 55 1
86 60 4
86 76 1
86 81 3
86 84 1
87 9 0
87 10 2
87 24 1
87 28 4
87 48 2
87 72 0
87 83 3
87 85 4
87 86 4
87 90 2
88 11 2
88 24 2
88 25 3
88 35 1
88 37 3
88 42 2
88 44 3
88 53 4
88 56 2
88 68 2
89 16 4
89 25 3
89 40 4
89 44 1
89 49 4
89 63 4
89 64 1
89 65 1
89 78 2
89 83 1
90 5 3
90 18 4
90 30 1
90 33 1
90 49 3
90 65 2
90 68 3
90 77 1
90 81 4
90 89 3
91 6 1
91 11 0
91 18 4
91 19 3
91 21 2
91 28 4
91 41 3
91 63 4
91 66 0
91 68 4
92 0 2
92 18 2
92 36 0
92 38 1
92 52 0
92 55 0
92 57 1
92 64 4
92 69 4
92 74 3
93 3 1
93 6 1
93 17 4
93 25 4
93 52 3
93 60 2
93 81 2
93 83 3
93 88 4
93 97 1
94 0 1
94 34 2
94 47 4
94 53 0
94 54 2
94 56 1
94 59 2
94 61 4
94 71 0
94 73 1
95 2 1
95 16 0
95 24 0
95 26 3
95 45 1
95 47 3
95 55 1
95 59 3
95 76 4
95 77 0
96 15 4
96 55 0
96 66 0
96 68 2
96 78 2
96 80 1
96 91 0
96 95 2
96 97 0
96 99 2
97 1 0
97 2 0
97 10 1
97 20 4
97 31 3
97 36 2
97 38 1
97 39 2
97 53 0
97 63 1
98 3 4
98 18 3
98 29 4
98 31 3
98 33 0
98 40 3
98 41 1
98 57 2
98 61 0
98 66 4
99 4 0
99 31 3
99 40 1
99 45 1
99 47 0
99 61 3
99 64 3
99 70 1
99 71 4
99 82 4
